problems/csplib-prob030/BalancedAcademicCurriculumProblem-models/compact/O0/minion/model-bacp-4-solution000001.eprime-solution
language ESSENCE' 1.0

letting curr_Function1D be
        [9, 1, 1, 9, 1, 8, 8, 7, 7, 7, 7, 7, 7, 7, 6, 6, 6, 6, 6, 1, 6, 6, 6, 5, 5, 5, 5, 5, 4, 4, 1, 1, 4, 4, 4, 3, 3,
         3, 2, 2, 1, 2, 10, 2, 2, 2, 10, 1, 1, 1;
             int(1..50)]
