problems/csplib-prob030/BalancedAcademicCurriculumProblem-models/noch/O2/minion/model-bacp-4-solution000001.solution
language Essence 1.3

letting curr be
        function(1 --> 9, 2 --> 1, 3 --> 1, 4 --> 9, 5 --> 1, 6 --> 8, 7 --> 8, 8 --> 7, 9 --> 7, 10 --> 7, 11 --> 7,
                 12 --> 7, 13 --> 7, 14 --> 7, 15 --> 6, 16 --> 6, 17 --> 6, 18 --> 6, 19 --> 6, 20 --> 1, 21 --> 6,
                 22 --> 6, 23 --> 6, 24 --> 5, 25 --> 5, 26 --> 5, 27 --> 5, 28 --> 5, 29 --> 4, 30 --> 4, 31 --> 1,
                 32 --> 1, 33 --> 4, 34 --> 4, 35 --> 4, 36 --> 3, 37 --> 3, 38 --> 3, 39 --> 2, 40 --> 2, 41 --> 1,
                 42 --> 2, 43 --> 10, 44 --> 2, 45 --> 2, 46 --> 2, 47 --> 10, 48 --> 1, 49 --> 1, 50 --> 1)
